T = 150;
V = 10;
Q = 15;
L = 8;
C = 9;
P = 10;
time = [|  0, 10, 10, 20, 23,  0, 10, 10, 10, 10, 20,  0, 19, 23,  0, 20, 12,  0, 12, 19, 11, 11, 11, 11, 11, 11, 11, 11, 11, 11, 11, 11, 11, 11, 11, 11, 11, 11, 11, 11,
        | 10,  0,  0, 20, 20, 10,  0, 17, 17, 17, 20, 10, 20, 20, 10, 20,  6, 10,  6, 20, 10, 10, 10, 10, 10, 10, 10, 10, 10, 10, 10, 10, 10, 10, 10, 10, 10, 10, 10, 10,
        | 10,  0,  0, 20, 20, 10,  0, 17, 17, 17, 20, 10, 20, 20, 10, 20,  6, 10,  6, 20, 10, 10, 10, 10, 10, 10, 10, 10, 10, 10, 10, 10, 10, 10, 10, 10, 10, 10, 10, 10,
        | 20, 20, 20,  0,  5, 20, 20, 13, 13, 13,  0, 20,  2,  5, 20,  0, 15, 20, 15,  2, 11, 11, 11, 11, 11, 11, 11, 11, 11, 11, 11, 11, 11, 11, 11, 11, 11, 11, 11, 11,
        | 23, 20, 20,  5,  0, 23, 20, 17, 17, 17,  5, 23,  7,  0, 23,  5, 15, 23, 15,  7, 13, 13, 13, 13, 13, 13, 13, 13, 13, 13, 13, 13, 13, 13, 13, 13, 13, 13, 13, 13,
        |  0, 10, 10, 20, 23,  0, 10, 10, 10, 10, 20,  0, 19, 23,  0, 20, 12,  0, 12, 19, 11, 11, 11, 11, 11, 11, 11, 11, 11, 11, 11, 11, 11, 11, 11, 11, 11, 11, 11, 11,
        | 10,  0,  0, 20, 20, 10,  0, 17, 17, 17, 20, 10, 20, 20, 10, 20,  6, 10,  6, 20, 10, 10, 10, 10, 10, 10, 10, 10, 10, 10, 10, 10, 10, 10, 10, 10, 10, 10, 10, 10,
        | 10, 17, 17, 13, 17, 10, 17,  0,  0,  0, 13, 10, 12, 17, 10, 13, 15, 10, 15, 12, 10, 10, 10, 10, 10, 10, 10, 10, 10, 10, 10, 10, 10, 10, 10, 10, 10, 10, 10, 10,
        | 10, 17, 17, 13, 17, 10, 17,  0,  0,  0, 13, 10, 12, 17, 10, 13, 15, 10, 15, 12, 10, 10, 10, 10, 10, 10, 10, 10, 10, 10, 10, 10, 10, 10, 10, 10, 10, 10, 10, 10,
        | 10, 17, 17, 13, 17, 10, 17,  0,  0,  0, 13, 10, 12, 17, 10, 13, 15, 10, 15, 12, 10, 10, 10, 10, 10, 10, 10, 10, 10, 10, 10, 10, 10, 10, 10, 10, 10, 10, 10, 10,
        | 20, 20, 20,  0,  5, 20, 20, 13, 13, 13,  0, 20,  2,  5, 20,  0, 15, 20, 15,  2, 11, 11, 11, 11, 11, 11, 11, 11, 11, 11, 11, 11, 11, 11, 11, 11, 11, 11, 11, 11,
        |  0, 10, 10, 20, 23,  0, 10, 10, 10, 10, 20,  0, 19, 23,  0, 20, 12,  0, 12, 19, 11, 11, 11, 11, 11, 11, 11, 11, 11, 11, 11, 11, 11, 11, 11, 11, 11, 11, 11, 11,
        | 19, 20, 20,  2,  7, 19, 20, 12, 12, 12,  2, 19,  0,  7, 19,  2, 15, 19, 15,  0, 10, 10, 10, 10, 10, 10, 10, 10, 10, 10, 10, 10, 10, 10, 10, 10, 10, 10, 10, 10,
        | 23, 20, 20,  5,  0, 23, 20, 17, 17, 17,  5, 23,  7,  0, 23,  5, 15, 23, 15,  7, 13, 13, 13, 13, 13, 13, 13, 13, 13, 13, 13, 13, 13, 13, 13, 13, 13, 13, 13, 13,
        |  0, 10, 10, 20, 23,  0, 10, 10, 10, 10, 20,  0, 19, 23,  0, 20, 12,  0, 12, 19, 11, 11, 11, 11, 11, 11, 11, 11, 11, 11, 11, 11, 11, 11, 11, 11, 11, 11, 11, 11,
        | 20, 20, 20,  0,  5, 20, 20, 13, 13, 13,  0, 20,  2,  5, 20,  0, 15, 20, 15,  2, 11, 11, 11, 11, 11, 11, 11, 11, 11, 11, 11, 11, 11, 11, 11, 11, 11, 11, 11, 11,
        | 12,  6,  6, 15, 15, 12,  6, 15, 15, 15, 15, 12, 15, 15, 12, 15,  0, 12,  0, 15,  6,  6,  6,  6,  6,  6,  6,  6,  6,  6,  6,  6,  6,  6,  6,  6,  6,  6,  6,  6,
        |  0, 10, 10, 20, 23,  0, 10, 10, 10, 10, 20,  0, 19, 23,  0, 20, 12,  0, 12, 19, 11, 11, 11, 11, 11, 11, 11, 11, 11, 11, 11, 11, 11, 11, 11, 11, 11, 11, 11, 11,
        | 12,  6,  6, 15, 15, 12,  6, 15, 15, 15, 15, 12, 15, 15, 12, 15,  0, 12,  0, 15,  6,  6,  6,  6,  6,  6,  6,  6,  6,  6,  6,  6,  6,  6,  6,  6,  6,  6,  6,  6,
        | 19, 20, 20,  2,  7, 19, 20, 12, 12, 12,  2, 19,  0,  7, 19,  2, 15, 19, 15,  0, 10, 10, 10, 10, 10, 10, 10, 10, 10, 10, 10, 10, 10, 10, 10, 10, 10, 10, 10, 10,
        | 11, 10, 10, 11, 13, 11, 10, 10, 10, 10, 11, 11, 10, 13, 11, 11,  6, 11,  6, 10,  0,  0,  0,  0,  0,  0,  0,  0,  0,  0,  0,  0,  0,  0,  0,  0,  0,  0,  0,  0,
        | 11, 10, 10, 11, 13, 11, 10, 10, 10, 10, 11, 11, 10, 13, 11, 11,  6, 11,  6, 10,  0,  0,  0,  0,  0,  0,  0,  0,  0,  0,  0,  0,  0,  0,  0,  0,  0,  0,  0,  0,
        | 11, 10, 10, 11, 13, 11, 10, 10, 10, 10, 11, 11, 10, 13, 11, 11,  6, 11,  6, 10,  0,  0,  0,  0,  0,  0,  0,  0,  0,  0,  0,  0,  0,  0,  0,  0,  0,  0,  0,  0,
        | 11, 10, 10, 11, 13, 11, 10, 10, 10, 10, 11, 11, 10, 13, 11, 11,  6, 11,  6, 10,  0,  0,  0,  0,  0,  0,  0,  0,  0,  0,  0,  0,  0,  0,  0,  0,  0,  0,  0,  0,
        | 11, 10, 10, 11, 13, 11, 10, 10, 10, 10, 11, 11, 10, 13, 11, 11,  6, 11,  6, 10,  0,  0,  0,  0,  0,  0,  0,  0,  0,  0,  0,  0,  0,  0,  0,  0,  0,  0,  0,  0,
        | 11, 10, 10, 11, 13, 11, 10, 10, 10, 10, 11, 11, 10, 13, 11, 11,  6, 11,  6, 10,  0,  0,  0,  0,  0,  0,  0,  0,  0,  0,  0,  0,  0,  0,  0,  0,  0,  0,  0,  0,
        | 11, 10, 10, 11, 13, 11, 10, 10, 10, 10, 11, 11, 10, 13, 11, 11,  6, 11,  6, 10,  0,  0,  0,  0,  0,  0,  0,  0,  0,  0,  0,  0,  0,  0,  0,  0,  0,  0,  0,  0,
        | 11, 10, 10, 11, 13, 11, 10, 10, 10, 10, 11, 11, 10, 13, 11, 11,  6, 11,  6, 10,  0,  0,  0,  0,  0,  0,  0,  0,  0,  0,  0,  0,  0,  0,  0,  0,  0,  0,  0,  0,
        | 11, 10, 10, 11, 13, 11, 10, 10, 10, 10, 11, 11, 10, 13, 11, 11,  6, 11,  6, 10,  0,  0,  0,  0,  0,  0,  0,  0,  0,  0,  0,  0,  0,  0,  0,  0,  0,  0,  0,  0,
        | 11, 10, 10, 11, 13, 11, 10, 10, 10, 10, 11, 11, 10, 13, 11, 11,  6, 11,  6, 10,  0,  0,  0,  0,  0,  0,  0,  0,  0,  0,  0,  0,  0,  0,  0,  0,  0,  0,  0,  0,
        | 11, 10, 10, 11, 13, 11, 10, 10, 10, 10, 11, 11, 10, 13, 11, 11,  6, 11,  6, 10,  0,  0,  0,  0,  0,  0,  0,  0,  0,  0,  0,  0,  0,  0,  0,  0,  0,  0,  0,  0,
        | 11, 10, 10, 11, 13, 11, 10, 10, 10, 10, 11, 11, 10, 13, 11, 11,  6, 11,  6, 10,  0,  0,  0,  0,  0,  0,  0,  0,  0,  0,  0,  0,  0,  0,  0,  0,  0,  0,  0,  0,
        | 11, 10, 10, 11, 13, 11, 10, 10, 10, 10, 11, 11, 10, 13, 11, 11,  6, 11,  6, 10,  0,  0,  0,  0,  0,  0,  0,  0,  0,  0,  0,  0,  0,  0,  0,  0,  0,  0,  0,  0,
        | 11, 10, 10, 11, 13, 11, 10, 10, 10, 10, 11, 11, 10, 13, 11, 11,  6, 11,  6, 10,  0,  0,  0,  0,  0,  0,  0,  0,  0,  0,  0,  0,  0,  0,  0,  0,  0,  0,  0,  0,
        | 11, 10, 10, 11, 13, 11, 10, 10, 10, 10, 11, 11, 10, 13, 11, 11,  6, 11,  6, 10,  0,  0,  0,  0,  0,  0,  0,  0,  0,  0,  0,  0,  0,  0,  0,  0,  0,  0,  0,  0,
        | 11, 10, 10, 11, 13, 11, 10, 10, 10, 10, 11, 11, 10, 13, 11, 11,  6, 11,  6, 10,  0,  0,  0,  0,  0,  0,  0,  0,  0,  0,  0,  0,  0,  0,  0,  0,  0,  0,  0,  0,
        | 11, 10, 10, 11, 13, 11, 10, 10, 10, 10, 11, 11, 10, 13, 11, 11,  6, 11,  6, 10,  0,  0,  0,  0,  0,  0,  0,  0,  0,  0,  0,  0,  0,  0,  0,  0,  0,  0,  0,  0,
        | 11, 10, 10, 11, 13, 11, 10, 10, 10, 10, 11, 11, 10, 13, 11, 11,  6, 11,  6, 10,  0,  0,  0,  0,  0,  0,  0,  0,  0,  0,  0,  0,  0,  0,  0,  0,  0,  0,  0,  0,
        | 11, 10, 10, 11, 13, 11, 10, 10, 10, 10, 11, 11, 10, 13, 11, 11,  6, 11,  6, 10,  0,  0,  0,  0,  0,  0,  0,  0,  0,  0,  0,  0,  0,  0,  0,  0,  0,  0,  0,  0,
        | 11, 10, 10, 11, 13, 11, 10, 10, 10, 10, 11, 11, 10, 13, 11, 11,  6, 11,  6, 10,  0,  0,  0,  0,  0,  0,  0,  0,  0,  0,  0,  0,  0,  0,  0,  0,  0,  0,  0,  0|];
l =     [  7,  5,  5,  1,  4,  7,  5,  3,  3,  3,  1,  7,  6,  4,  7,  1,  2,  7,  2,  6];
a =     [ 11, 26, 19, 11, 22, 15, 40, 36, 13, 13, 47, 49, 55, 34, 63, 52, 57, 65, 46, 39];
b =     [ 46, 49, 35, 34, 38, 46, 74, 74, 30, 46,101, 96,103,103,112,112,124,109,115,102];
s =     [ 16, 13, 16, 18, 18, 17, 11, 19, 18, 14, 16, 13, 16, 18, 18, 17, 11, 19, 18, 14];
q =     [  2,  3,  2,  3,  1,  4,  2,  4,  1,  1, -2, -3, -2, -3, -1, -4, -2, -4, -1, -1];
